data; 

# include the constants
include MarkovActv.dat;

# include the simulated states and choices
include MarkovActvMC.dat

# initial EV
param initEV :=   0.0;

# intial value of VoT
param initValueOfTime :=  20.0;

# initial values of parameters
param initUm :=
	1	500
	2	500
	3	500
;
param initB :=
	1	0
	2	500
	3	1000
;
param initC :=
	1	100
	2	100
	3	100
;